NAME: cluster_19
TYPE: TSP
DIMENSION: 11
EDGE_WEIGHT_TYPE: EUC_2D
NODE_COORD_SECTION
1 12000.00 16000.00
2 3896.52 23412.39
3 9390.34 24674.74
4 6336.16 30120.95
5 6021.31 24149.17
6 4461.52 27473.60
7 6221.37 29583.22
8 4692.10 27891.22
9 6513.17 28424.92
10 3320.76 27567.09
11 5328.14 26525.62
EOF
